Route #1: 1 13 38 45 43 20 42 41 42 14 19 26 25 24 25 7 1 
Route #2: 1 19 15 25 44 25 8 27 9 27 32 29 4 12 1 
Route #3: 1 6 12 4 37 4 36 21 4 23 4 3 17 1 
Route #4: 1 19 5 18 45 16 11 34 11 40 11 31 10 17 1 
Route #5: 1 28 33 12 2 12 17 35 17 22 17 30 17 39 1 
Cost 790.0
